nodes = 8;
edges = 15;
start = 1;
end = 6;
tasks = 3;

starts = [1,1,1,2,3,3,3,3,4,4,5,6,7,8,8];
ends = [2,4,7,4,2,4,5,6,5,8,8,5,4,6,7];
weights = [1,8,6,2,14,10,6,19,8,13,12,7,5,4,10];

task = array2d(1..tasks, 1..nodes, [
       1, 0, 1, 0, 0, 0, 0, 0,
       0, 0, 0, 0, 0, 1, 0, 0, 
       0, 0, 0, 1, 0, 0, 0, 1
]);